
Gurobi 9.5.1 (mac64[x86]) logging started Mon Jun 27 15:16:59 2022

Set parameter LogFile to value "/Users/keyvanmajd/Documents/GitHub/NNRepLayer_v2/demos/walking_example/flow_constraint/repair_net/logs/opt_log_6_27_2022_15_14_52.log"
Gurobi Optimizer version 9.5.1 build v9.5.1rc2 (mac64[x86])
Thread count: 4 physical cores, 8 logical processors, using up to 8 threads
Optimize a model with 79512 rows, 49357 columns and 222392 nonzeros
Model fingerprint: 0x8b927140
Model has 301 quadratic objective terms
Variable types: 20557 continuous, 28800 integer (28800 binary)
Coefficient statistics:
  Matrix range     [1e-03, 5e+01]
  Objective range  [3e-03, 3e-01]
  QObjective range [7e-02, 2e+00]
  Bounds range     [1e-01, 5e+01]
  RHS range        [2e-04, 5e+01]
Presolve removed 71789 rows and 42240 columns
Presolve time: 0.25s

Explored 0 nodes (0 simplex iterations) in 0.32 seconds (0.23 work units)
Thread count was 1 (of 8 available processors)

Solution count 0

Model is infeasible
Best objective -, best bound -, gap -
